<number of tasks>
100

<cycle time>
1000

<order strength>
0.599


<task times>
1 290
2 280
3 145
4 26
5 125
6 230
7 202
8 39
9 212
10 247
11 426
12 499
13 135
14 80
15 190
16 128
17 111
18 137
19 574
20 521
21 46
22 135
23 122
24 569
25 97
26 502
27 179
28 258
29 131
30 59
31 510
32 343
33 502
34 554
35 41
36 128
37 226
38 588
39 164
40 286
41 503
42 210
43 334
44 63
45 163
46 463
47 58
48 219
49 86
50 263
51 364
52 256
53 207
54 456
55 37
56 275
57 287
58 119
59 208
60 478
61 543
62 650
63 129
64 49
65 32
66 54
67 41
68 148
69 135
70 420
71 101
72 25
73 70
74 192
75 85
76 256
77 95
78 330
79 463
80 183
81 156
82 496
83 55
84 105
85 195
86 175
87 374
88 522
89 229
90 70
91 312
92 181
93 510
94 545
95 146
96 60
97 230
98 63
99 281
100 106

<precedence relations>
1,5
2,4
2,6
2,7
2,8
2,9
3,7
3,9
4,10
5,12
6,13
7,11
7,14
7,15
7,19
8,58
8,99
8,100
9,15
10,18
11,16
12,18
13,19
14,17
15,18
15,20
15,21
15,22
16,23
17,26
18,23
18,24
18,26
18,27
18,28
18,29
19,23
19,24
19,25
19,27
20,43
20,59
21,66
22,25
22,27
22,28
23,32
23,34
24,30
24,32
24,33
24,34
25,31
25,32
25,33
25,34
26,32
27,92
28,39
29,32
29,34
30,35
31,36
32,37
32,39
33,38
33,39
34,39
35,43
36,43
37,41
38,42
39,40
39,43
39,44
40,45
41,46
42,47
43,48
43,49
43,51
43,52
43,64
44,49
44,50
45,53
46,55
47,54
48,56
48,57
48,58
48,73
49,66
50,57
50,58
50,59
51,57
51,63
51,66
51,72
52,81
52,86
53,64
54,60
55,66
56,62
57,61
57,65
57,79
59,63
60,72
61,70
62,71
63,67
63,68
63,73
64,73
64,78
65,69
65,80
65,82
65,86
65,88
66,78
66,87
67,74
68,75
69,76
70,77
71,78
73,79
73,80
73,81
73,82
74,83
75,86
76,87
77,85
78,84
78,86
78,88
78,91
79,91
80,94
80,96
80,97
81,88
82,91
83,90
84,89
85,91
87,95
87,99
88,92
89,94
90,93
91,95
92,95
92,96
92,97
93,98
95,98
96,98
96,99
97,100

<end>
